
******************************************************************************
This program contains Ipopt, a library for large-scale nonlinear optimization.
 Ipopt is released as open source code under the Eclipse Public License (EPL).
         For more information visit http://projects.coin-or.org/Ipopt
******************************************************************************

This is Ipopt version 3.12.6, running with linear solver ma57.

Number of nonzeros in equality constraint Jacobian...:    71174
Number of nonzeros in inequality constraint Jacobian.:        0
Number of nonzeros in Lagrangian Hessian.............:     9600

Total number of variables............................:     9598
                     variables with only lower bounds:        0
                variables with lower and upper bounds:        0
                     variables with only upper bounds:        0
Total number of equality constraints.................:     9598
Total number of inequality constraints...............:        0
        inequality constraints with only lower bounds:        0
   inequality constraints with lower and upper bounds:        0
        inequality constraints with only upper bounds:        0

iter    objective    inf_pr   inf_du lg(mu)  ||d||  lg(rg) alpha_du alpha_pr  ls
   0  1.0000000e+00 2.50e+02 0.00e+00  -1.0 0.00e+00    -  0.00e+00 0.00e+00   0
   1  1.0000000e+00 1.36e+01 2.52e-01  -1.0 2.62e+02  -4.0 1.00e+00 1.00e+00H  1
   2  1.0000000e+00 1.71e-08 9.51e-04  -1.0 1.36e+01  -4.5 1.00e+00 1.00e+00h  1
   3  1.0000000e+00 3.71e-13 4.66e-11  -5.7 4.19e-06  -5.0 1.00e+00 1.00e+00h  1
Cannot recompute multipliers for feasibility problem.  Error in eq_mult_calculator

Number of Iterations....: 3

                                   (scaled)                 (unscaled)
Objective...............:   1.0000000000000000e+00    1.0000000000000000e+00
Dual infeasibility......:   4.6566885511985824e-11    4.6566885511985824e-11
Constraint violation....:   3.5052632285028943e-13    3.7086312796582941e-13
Complementarity.........:   0.0000000000000000e+00    0.0000000000000000e+00
Overall NLP error.......:   3.5052632285028943e-13    4.6566885511985824e-11


Number of objective function evaluations             = 5
Number of objective gradient evaluations             = 4
Number of equality constraint evaluations            = 5
Number of inequality constraint evaluations          = 0
Number of equality constraint Jacobian evaluations   = 4
Number of inequality constraint Jacobian evaluations = 0
Number of Lagrangian Hessian evaluations             = 3
Total CPU secs in IPOPT (w/o function evaluations)   =      0.083
Total CPU secs in NLP function evaluations           =      0.010

EXIT: Optimal Solution Found.

************************ CUTEst statistics ************************


 Package used            :  IPOPT
 Problem                 :  CHANNEL   
 # variables             =            9600
 # constraints           =            9598
 # objective functions   =        0.1000000E+02
 # objective gradients   =        0.5000000E+01
 # objective Hessians    =        0.4000000E+01
 # Hessian-vector prdct  =        0.0000000E+00
 # constraints functions =        0.1100000E+02
 # constraints gradients =        0.6000000E+01
 # constraints Hessians  =        0.4000000E+01
 Exit code               =               0
 Final f                 =   0.1000000E+01
 Set up time             =            0.24 seconds
 Solve time              =            0.15 seconds


******************************************************************

System Time =       0.0850000009 s.
